100
128
5
34
20
8
41
50
14
11
17
4
31
1
7
4
1
6
3
42
24
10
27
25
15
4
7
3
6
14
9
17
15
6
42
5
2
36
8
34
49
58
5
47
38
10
13
58
2
50
51
50
55
56
5
58
21
35
28
52
17
59
30
42
3
5
4
10
38
63
48
56
9
30
51
6
63
4
25
5
2
1
64
8
2
35
3
56
32
46
45
63
2
31
40
6
63
5
3
42
46
40